data;

param n:=21;
param p:=3;
param r:=[1] 0 [2] 3 [3] 0 [4] 1 [5] 6 [6] 6 [7] 1 [8] 18 [9] 2 [10] 24 [11] 17 [12] 26 [13] 19 [14] 30 [15] 29 [16] 5 [17] 0 [18] 7 [19] 14 [20] 26 [21] 12 ;
param w:=[1] 43 [2] 55 [3] 11 [4] 80 [5] 78 [6] 92 [7] 19 [8] 36 [9] 42 [10] 7 [11] 32 [12] 3 [13] 3 [14] 31 [15] 89 [16] 90 [17] 58 [18] 24 [19] 24 [20] 40 [21] 43 ;

end;
